enter Q
Maximize

197 dSta_0 + 2 d0_29 + 194 d29_38 + 1 d38_30 + 38 d30_39 + 3 d39_40 + 1 d39_41 + 119 d40_42 + 119 d41_42 + 36 d42_31 + 82 d31_43 + 37 d43_44 + 41 d43_45 + 79 d44_48 + 38 d45_46 + 39 d45_47 + 79 d46_48 + 79 d47_48 + 1 d48_49 + 195 d48_50 + 195 d49_50 + 2 d50_51 + 42 d50_52 + 3 d51_55 + 37 d52_53 + 39 d52_54 + 3 d53_55 + 3 d54_55 + 117 d55_32 + 2 d32_33 + 38 d32_34 + 79 d33_37 + 2 d34_35 + 37 d34_36 + 79 d35_37 + 79 d36_37 + 1 d37_1 + 114 d37_10 + 93 d1_11 + 1 d11_2 + 4 d2_12 + 3 d12_13 + 1 d12_14 + 32 d13_15 + 33 d14_15 + 1 d15_3 + 23 d3_16 + 2 d16_17 + 11 d16_18 + 10 d17_21 + 2 d18_19 + 6 d18_20 + 10 d19_21 + 10 d20_21 + 1 d21_22 + 53 d21_23 + 54 d22_23 + 2 d23_24 + 11 d23_25 + 3 d24_28 + 2 d25_26 + 6 d25_27 + 3 d26_28 + 3 d27_28 + 26 d28_4 + 2 d4_5 + 3 d4_6 + 79 d5_9 + 2 d6_7 + 37 d6_8 + 79 d7_9 + 79 d8_9 + 114 d9_10 + 1 d9_1


Subject to


\ === tcfg constraints ===
dSta_0 = 1
b0 - d0_29 = 0
b0 - dSta_0 = 0
b1 - d1_11 = 0
b1 - d9_1 - d37_1 = 0
b2 - d2_12 = 0
b2 - d11_2 = 0
b3 - d3_16 = 0
b3 - d15_3 = 0
b4 - d4_5 - d4_6 = 0
b4 - d28_4 = 0
b5 - d5_9 = 0
b5 - d4_5 = 0
b6 - d6_7 - d6_8 = 0
b6 - d4_6 = 0
b7 - d7_9 = 0
b7 - d6_7 = 0
b8 - d8_9 = 0
b8 - d6_8 = 0
b9 - d9_10 - d9_1 = 0
b9 - d5_9 - d7_9 - d8_9 = 0
b10 - d9_10 - d37_10 = 0
b11 - d11_2 = 0
b11 - d1_11 = 0
b12 - d12_13 - d12_14 = 0
b12 - d2_12 = 0
b13 - d13_15 = 0
b13 - d12_13 = 0
b14 - d14_15 = 0
b14 - d12_14 = 0
b15 - d15_3 = 0
b15 - d13_15 - d14_15 = 0
b16 - d16_17 - d16_18 = 0
b16 - d3_16 = 0
b17 - d17_21 = 0
b17 - d16_17 = 0
b18 - d18_19 - d18_20 = 0
b18 - d16_18 = 0
b19 - d19_21 = 0
b19 - d18_19 = 0
b20 - d20_21 = 0
b20 - d18_20 = 0
b21 - d21_22 - d21_23 = 0
b21 - d17_21 - d19_21 - d20_21 = 0
b22 - d22_23 = 0
b22 - d21_22 = 0
b23 - d23_24 - d23_25 = 0
b23 - d21_23 - d22_23 = 0
b24 - d24_28 = 0
b24 - d23_24 = 0
b25 - d25_26 - d25_27 = 0
b25 - d23_25 = 0
b26 - d26_28 = 0
b26 - d25_26 = 0
b27 - d27_28 = 0
b27 - d25_27 = 0
b28 - d28_4 = 0
b28 - d24_28 - d26_28 - d27_28 = 0
b29 - d29_38 = 0
b29 - d0_29 = 0
b30 - d30_39 = 0
b30 - d38_30 = 0
b31 - d31_43 = 0
b31 - d42_31 = 0
b32 - d32_33 - d32_34 = 0
b32 - d55_32 = 0
b33 - d33_37 = 0
b33 - d32_33 = 0
b34 - d34_35 - d34_36 = 0
b34 - d32_34 = 0
b35 - d35_37 = 0
b35 - d34_35 = 0
b36 - d36_37 = 0
b36 - d34_36 = 0
b37 - d37_1 - d37_10 = 0
b37 - d33_37 - d35_37 - d36_37 = 0
b38 - d38_30 = 0
b38 - d29_38 = 0
b39 - d39_40 - d39_41 = 0
b39 - d30_39 = 0
b40 - d40_42 = 0
b40 - d39_40 = 0
b41 - d41_42 = 0
b41 - d39_41 = 0
b42 - d42_31 = 0
b42 - d40_42 - d41_42 = 0
b43 - d43_44 - d43_45 = 0
b43 - d31_43 = 0
b44 - d44_48 = 0
b44 - d43_44 = 0
b45 - d45_46 - d45_47 = 0
b45 - d43_45 = 0
b46 - d46_48 = 0
b46 - d45_46 = 0
b47 - d47_48 = 0
b47 - d45_47 = 0
b48 - d48_49 - d48_50 = 0
b48 - d44_48 - d46_48 - d47_48 = 0
b49 - d49_50 = 0
b49 - d48_49 = 0
b50 - d50_51 - d50_52 = 0
b50 - d48_50 - d49_50 = 0
b51 - d51_55 = 0
b51 - d50_51 = 0
b52 - d52_53 - d52_54 = 0
b52 - d50_52 = 0
b53 - d53_55 = 0
b53 - d52_53 = 0
b54 - d54_55 = 0
b54 - d52_54 = 0
b55 - d55_32 = 0
b55 - d51_55 - d53_55 - d54_55 = 0

\ === tcfg loop header node bounds  ===
b1 <= 9

\ === tcfg loop back edge constraints  ===
d9_1 - 8 d37_1 <= 0


\ === user constraints (loop bound etc) ===
b38+ b11 = 10
b39+ b12 = 10
b42+ b15 = 10
b43+ b16 = 10
b48+ b21 = 10
b50+ b23 = 10
b55+ b28 = 10
b0 = 1
b29+ b1 = 10
b30+ b2 = 10
b31+ b3 = 10
b32+ b4 = 10
b37+ b9 = 10
b10 = 1

Generals

dSta_0
b0
d0_29
b1
d1_11
b2
d2_12
b3
d3_16
b4
d4_5
d4_6
b5
d5_9
b6
d6_7
d6_8
b7
d7_9
b8
d8_9
b9
d9_10
d9_1
b10
b11
d11_2
b12
d12_13
d12_14
b13
d13_15
b14
d14_15
b15
d15_3
b16
d16_17
d16_18
b17
d17_21
b18
d18_19
d18_20
b19
d19_21
b20
d20_21
b21
d21_22
d21_23
b22
d22_23
b23
d23_24
d23_25
b24
d24_28
b25
d25_26
d25_27
b26
d26_28
b27
d27_28
b28
d28_4
b29
d29_38
b30
d30_39
b31
d31_43
b32
d32_33
d32_34
b33
d33_37
b34
d34_35
d34_36
b35
d35_37
b36
d36_37
b37
d37_1
d37_10
b38
d38_30
b39
d39_40
d39_41
b40
d40_42
b41
d41_42
b42
d42_31
b43
d43_44
d43_45
b44
d44_48
b45
d45_46
d45_47
b46
d46_48
b47
d47_48
b48
d48_49
d48_50
b49
d49_50
b50
d50_51
d50_52
b51
d51_55
b52
d52_53
d52_54
b53
d53_55
b54
d54_55
b55
d55_32

End
optimize
set logfile ../benchmarks/papabench/ap_main_getcmd_1/ap_main_getcmd_1.sol
display solution objective
display solution variables -
quit
